NAME : portcgen-27-21
COMMENT : portcgen N=27, seed=21
TYPE : TSP
DIMENSION : 27
EDGE_WEIGHT_TYPE : EUC_2D
NODE_COORD_SECTION
1 -130059 95025
2 -129924 183824
3 29617 175940
4 9707 129385
5 56213 -66250
6 -215991 289958
7 128604 -46311
8 -126385 130880
9 -50080 43203
10 134249 243568
11 136448 -406141
12 80227 -59996
13 170776 -477718
14 234329 -132868
15 516492 258785
16 306057 -104473
17 288097 18184
18 -300092 -68568
19 75808 -2086
20 -225948 77892
21 -72247 -62165
22 291090 208059
23 -86219 -319716
24 164516 -52430
25 171021 -239013
26 -229818 -175815
27 8308 -111361
